Route #1: 2 23 43 42 44 24 17
Route #2: 6 48 37 38 21 16
Route #3: 7 34 3 31
Route #4: 9 36 20 14 28 46
Route #5: 10 26 19 25 50 4
Route #6: 13 40 32 11 8
Route #7: 18 45 33 41
Route #8: 27 47 35 5
Route #9: 29 22 49 30
Route #10: 39 12 15
cost 706